
Gurobi 6.5.2 (win64) logging started 07/23/16 03:59:53


Gurobi 6.5.2 (win64) logging started 07/23/16 03:59:53

Optimize a model with 23360 rows, 1427 columns and 50663 nonzeros
Coefficient statistics:
  Matrix range    [4e-06, 1e+03]
  Objective range [1e+00, 1e+00]
  Bounds range    [1e+00, 1e+00]
  RHS range       [1e+00, 1e+03]
Found heuristic solution: objective 1468.06
Presolve removed 23332 rows and 1398 columns
Presolve time: 0.01s
Presolved: 28 rows, 29 columns, 87 nonzeros
Found heuristic solution: objective 267.1377790
Variable types: 29 continuous, 0 integer (0 binary)

Root relaxation: objective 2.164776e+02, 18 iterations, 0.00 seconds

    Nodes    |    Current Node    |     Objective Bounds      |     Work
 Expl Unexpl |  Obj  Depth IntInf | Incumbent    BestBd   Gap | It/Node Time

*    0     0               0     216.4775541  216.47755  0.00%     -    0s

Explored 0 nodes (18 simplex iterations) in 0.02 seconds
Thread count was 8 (of 8 available processors)

Optimal solution found (tolerance 1.00e-04)
Best objective 2.164775541479e+02, best bound 2.164775541479e+02, gap 0.0%

Wrote requested result file 'H2\instance30\\Results30EC_Sol6.lp'

